






































































































29 49 31 66 57 46 
21 71 74 26 62 64 
33 61 43 32 73 11 65 
55 5 22 48 27 70 18 
47 14 67 35 42 2 
38 60 51 16 45 44 
54 0 36 34 24 6 30 
4 40 68 15 28 19 72 
69 9 3 25 56 59 37 
1 75 13 76 17 7 
23 58 12 41 20 39 52 
10 63 50 53 8 
